NAME : instances/20-120-tsp/instance-37.tsp
COMMENT : No Comment
TYPE : TSP
DIMENSION: 37
EDGE_WEIGHT_TYPE : EUC_2D
NODE_COORD_SECTION
1 7653 4254 
2 1291 4632 
3 3705 6440 
4 4193 4309 
5 9752 3549 
6 1786 3508 
7 6598 4616 
8 1738 7725 
9 6793 5174 
10 6913 2031 
11 7160 1763 
12 9171 4364 
13 8552 5757 
14 5067 5140 
15 9100 1200 
16 4045 3465 
17 6474 3286 
18 6510 3516 
19 4555 7208 
20 5727 147 
21 4693 8791 
22 3116 3634 
23 1497 7840 
24 2170 1352 
25 3978 4672 
26 255 4727 
27 2950 3259 
28 8523 2745 
29 9176 3251 
30 6385 2750 
31 318 1079 
32 948 7136 
33 5000 3249 
34 5937 1037 
35 8744 2491 
36 7615 3071 
37 992 7127 
EOF
